objective value:                 0.000288402608000001
x_1_2                                               1 	(obj:0)
x_2_3                                               1 	(obj:0)
x_3_4                                               1 	(obj:0)
x_4_3                                               1 	(obj:0)
x_5_4                                               1 	(obj:0)
x_6_2                                               1 	(obj:0)
x_7_3                                               1 	(obj:0)
x_8_4                                               1 	(obj:0)
x_9_2                                               1 	(obj:0)
x_10_3                                              1 	(obj:0)
x_11_2                                              1 	(obj:0)
x_12_4                                              1 	(obj:0)
x_13_4                                              1 	(obj:0)
x_14_4                                              1 	(obj:0)
x_15_3                                              1 	(obj:0)
x_16_2                                              1 	(obj:0)
x_17_3                                              1 	(obj:0)
x_18_4                                              1 	(obj:0)
x_19_2                                              1 	(obj:0)
x_20_3                                              1 	(obj:0)
ind_2                                               1 	(obj:0)
abs_2_3                                             1 	(obj:0)
ind_3                                               1 	(obj:0)
abs_3_4                                             1 	(obj:0)
ind_4                                               1 	(obj:0)
abs_4_2                                             1 	(obj:0)
epsI                             0.000288402608000001 	(obj:1)
prodt_x_19_2_t_x_20_3_irrev2_3_2                    1 	(obj:0)
prodt_x_19_2_t_x_20_3_irrev1_3_2                    1 	(obj:0)
prodt_x_1_2_t_x_2_2_more_coh_2           3.6793532028 	(obj:0)
prodt_x_6_2_t_x_7_2_more_coh_2            3.076752566 	(obj:0)
prodt_x_9_2_t_x_14_2_more_coh_2          2.9752790312 	(obj:0)
prodt_x_11_2_t_x_12_2_more_coh_2         1.5467415098 	(obj:0)
prodt_x_16_2_t_x_17_2_more_coh_2         0.7115554655 	(obj:0)
prodt_x_2_3_t_x_3_3_more_coh_3           2.7914232412 	(obj:0)
prodt_x_4_3_t_x_5_3_more_coh_3       3.99795348933333 	(obj:0)
prodt_x_7_3_t_x_9_3_more_coh_3           2.4423500153 	(obj:0)
prodt_x_10_3_t_x_11_3_more_coh_3         1.5648338143 	(obj:0)
prodt_x_15_3_t_x_16_3_more_coh_3         0.5057541497 	(obj:0)
prodt_x_17_3_t_x_18_3_more_coh_3         0.7704351927 	(obj:0)
prodt_x_3_4_t_x_4_4_more_coh_4           4.3020403693 	(obj:0)
prodt_x_5_4_t_x_6_4_more_coh_4           4.5952432605 	(obj:0)
prodt_x_8_4_t_x_11_4_more_coh_4           5.749671598 	(obj:0)
prodt_x_12_4_t_x_13_4_more_coh_4         3.4389618447 	(obj:0)
prodt_x_13_4_t_x_15_4_more_coh_4          1.531013924 	(obj:0)
prodt_x_14_4_t_x_15_4_more_coh_4     1.02672463233333 	(obj:0)
prodt_x_1_2_t_x_2_2_more_irrev1_2_1   -0.418803778578511 	(obj:0)
prodt_x_1_2_t_x_2_2_more_irrev2_2_1     0.41880377857851 	(obj:0)
prodt_x_1_2_t_x_2_3_more_irrev1_3_1    -2.92150454443217 	(obj:0)
prodt_x_1_2_t_x_2_3_more_irrev2_3_1     2.92150454443217 	(obj:0)
prodt_x_1_2_t_x_2_3_more_irrev1_3_2     2.92150454443217 	(obj:0)
prodt_x_2_3_t_x_3_2_more_irrev1_3_2     2.20027426718269 	(obj:0)
prodt_x_4_3_t_x_7_2_more_irrev1_3_2     3.90418564904801 	(obj:0)
prodt_x_6_2_t_x_7_3_more_irrev1_3_2     1.22430768973297 	(obj:0)
prodt_x_7_3_t_x_10_2_more_irrev1_3_2     2.28949867057281 	(obj:0)
prodt_x_9_2_t_x_11_3_more_irrev1_3_2     2.53219707759793 	(obj:0)
prodt_x_10_3_t_x_12_2_more_irrev1_3_2      2.1148207324074 	(obj:0)
prodt_x_11_2_t_x_13_3_more_irrev1_3_2      1.3851720061981 	(obj:0)
prodt_x_15_3_t_x_16_2_more_irrev1_3_2     1.56046511676151 	(obj:0)
prodt_x_16_2_t_x_20_3_more_irrev1_3_2     1.57807064711893 	(obj:0)
prodt_x_17_3_t_x_18_2_more_irrev1_3_2    0.739570477163384 	(obj:0)
prodt_x_1_2_t_x_2_3_more_irrev2_3_2    -2.92150454443217 	(obj:0)
prodt_x_2_3_t_x_3_2_more_irrev2_3_2    -2.20027426718269 	(obj:0)
prodt_x_4_3_t_x_7_2_more_irrev2_3_2    -3.90418564904801 	(obj:0)
prodt_x_6_2_t_x_7_3_more_irrev2_3_2    -1.22430768973297 	(obj:0)
prodt_x_7_3_t_x_10_2_more_irrev2_3_2    -2.28949867057281 	(obj:0)
prodt_x_9_2_t_x_11_3_more_irrev2_3_2    -2.53219707759793 	(obj:0)
prodt_x_10_3_t_x_12_2_more_irrev2_3_2     -2.1148207324074 	(obj:0)
prodt_x_11_2_t_x_13_3_more_irrev2_3_2     -1.3851720061981 	(obj:0)
prodt_x_15_3_t_x_16_2_more_irrev2_3_2    -1.56046511676151 	(obj:0)
prodt_x_16_2_t_x_20_3_more_irrev2_3_2    -1.57807064711893 	(obj:0)
prodt_x_17_3_t_x_18_2_more_irrev2_3_2   -0.739570477163384 	(obj:0)
prodt_x_1_2_t_x_5_4_more_irrev1_4_1     3.31399389280182 	(obj:0)
prodt_x_1_2_t_x_5_4_more_irrev2_4_1    -3.31399389280182 	(obj:0)
prodt_x_1_2_t_x_5_4_more_irrev1_4_2    -3.31399389280182 	(obj:0)
prodt_x_3_4_t_x_4_2_more_irrev1_4_2    -1.72847496186303 	(obj:0)
prodt_x_5_4_t_x_7_2_more_irrev1_4_2    -2.95258107226414 	(obj:0)
prodt_x_6_2_t_x_7_4_more_irrev1_4_2    -3.12319029182459 	(obj:0)
prodt_x_8_4_t_x_9_2_more_irrev1_4_2    -1.85161019120099 	(obj:0)
prodt_x_9_2_t_x_11_4_more_irrev1_4_2   -0.847634712526201 	(obj:0)
prodt_x_11_2_t_x_13_4_more_irrev1_4_2    -2.09338972250354 	(obj:0)
prodt_x_12_4_t_x_13_2_more_irrev1_4_2   -0.041228509054096 	(obj:0)
prodt_x_13_4_t_x_17_2_more_irrev1_4_2     -1.4623889289805 	(obj:0)
prodt_x_14_4_t_x_15_2_more_irrev1_4_2   -0.795430178849517 	(obj:0)
prodt_x_16_2_t_x_20_4_more_irrev1_4_2   -0.240328811189446 	(obj:0)
prodt_x_18_4_t_x_19_2_more_irrev1_4_2   -0.666601169212479 	(obj:0)
prodt_x_1_2_t_x_5_4_more_irrev2_4_2     3.31399389280182 	(obj:0)
prodt_x_3_4_t_x_4_2_more_irrev2_4_2     1.72847496186303 	(obj:0)
prodt_x_5_4_t_x_7_2_more_irrev2_4_2     2.95258107226414 	(obj:0)
prodt_x_6_2_t_x_7_4_more_irrev2_4_2     3.12319029182459 	(obj:0)
prodt_x_8_4_t_x_9_2_more_irrev2_4_2     1.85161019120099 	(obj:0)
prodt_x_9_2_t_x_11_4_more_irrev2_4_2    0.847634712526201 	(obj:0)
prodt_x_11_2_t_x_13_4_more_irrev2_4_2     2.09338972250354 	(obj:0)
prodt_x_12_4_t_x_13_2_more_irrev2_4_2   0.0412285090540963 	(obj:0)
prodt_x_13_4_t_x_17_2_more_irrev2_4_2      1.4623889289805 	(obj:0)
prodt_x_14_4_t_x_15_2_more_irrev2_4_2    0.795430178849517 	(obj:0)
prodt_x_16_2_t_x_20_4_more_irrev2_4_2    0.240328811189446 	(obj:0)
prodt_x_18_4_t_x_19_2_more_irrev2_4_2    0.666601169212479 	(obj:0)
prodt_x_2_3_t_x_4_4_more_irrev1_4_3     5.34510714902003 	(obj:0)
prodt_x_3_4_t_x_4_3_more_irrev1_4_3     3.37062661988029 	(obj:0)
prodt_x_4_3_t_x_5_4_more_irrev1_4_3     2.77886855853796 	(obj:0)
prodt_x_5_4_t_x_7_3_more_irrev1_4_3      1.8936780440532 	(obj:0)
prodt_x_7_3_t_x_8_4_more_irrev1_4_3     3.30971111187431 	(obj:0)
prodt_x_8_4_t_x_9_3_more_irrev1_4_3     1.61312894625053 	(obj:0)
prodt_x_10_3_t_x_12_4_more_irrev1_4_3     2.63537399943842 	(obj:0)
prodt_x_12_4_t_x_13_3_more_irrev1_4_3     2.20779085124406 	(obj:0)
prodt_x_13_4_t_x_17_3_more_irrev1_4_3      1.2451397684259 	(obj:0)
prodt_x_14_4_t_x_15_3_more_irrev1_4_3     2.22609758591437 	(obj:0)
prodt_x_15_3_t_x_20_4_more_irrev1_4_3    0.219345817017218 	(obj:0)
prodt_x_17_3_t_x_20_4_more_irrev1_4_3                    1 	(obj:0)
prodt_x_18_4_t_x_19_3_more_irrev1_4_3                    1 	(obj:0)
prodt_x_2_3_t_x_4_4_more_irrev2_4_3    -5.34510714902003 	(obj:0)
prodt_x_3_4_t_x_4_3_more_irrev2_4_3    -3.37062661988029 	(obj:0)
prodt_x_4_3_t_x_5_4_more_irrev2_4_3    -2.77886855853796 	(obj:0)
prodt_x_5_4_t_x_7_3_more_irrev2_4_3     -1.8936780440532 	(obj:0)
prodt_x_7_3_t_x_8_4_more_irrev2_4_3    -3.30971111187431 	(obj:0)
prodt_x_8_4_t_x_9_3_more_irrev2_4_3    -1.61312894625053 	(obj:0)
prodt_x_10_3_t_x_12_4_more_irrev2_4_3    -2.63537399943842 	(obj:0)
prodt_x_12_4_t_x_13_3_more_irrev2_4_3    -2.20779085124406 	(obj:0)
prodt_x_13_4_t_x_17_3_more_irrev2_4_3     -1.2451397684259 	(obj:0)
prodt_x_14_4_t_x_15_3_more_irrev2_4_3    -2.22609758591437 	(obj:0)
prodt_x_15_3_t_x_20_4_more_irrev2_4_3   -0.219345817017218 	(obj:0)
prodt_x_17_3_t_x_20_4_more_irrev2_4_3                   -1 	(obj:0)
prodt_x_18_4_t_x_19_3_more_irrev2_4_3                   -1 	(obj:0)
SCIP Status        : problem is solved [optimal solution found]
Total Time         :     107.27
  solving          :     107.27
  presolving       :       0.08 (included in solving)
  reading          :       0.00
  copying          :       0.81 (103 #copies) (minimal 0.00, maximal 0.01, average 0.01)
Original Problem   :
  Problem name     : instances/Pot3NonCycle_T_20B_1t.txt.spa
  Variables        : 101 (100 binary, 0 integer, 0 implicit integer, 1 continuous)
  Constraints      : 193 initial, 193 maximal
  Objective sense  : maximize
Presolved Problem  :
  Problem name     : t_instances/Pot3NonCycle_T_20B_1t.txt.spa
  Variables        : 590 (92 binary, 0 integer, 16 implicit integer, 482 continuous)
  Constraints      : 2039 initial, 4209 maximal
Presolvers         :   ExecTime  SetupTime  Calls  FixedVars   AggrVars   ChgTypes  ChgBounds   AddHoles    DelCons    AddCons   ChgSides   ChgCoefs
  boundshift       :       0.00       0.00      0          0          0          0          0          0          0          0          0          0
  components       :       0.00       0.00      1          0          0          0          0          0          0          0          0          0
  convertinttobin  :       0.00       0.00      0          0          0          0          0          0          0          0          0          0
  domcol           :       0.00       0.00      1          0          0          0          0          0          0          0          0          0
  dualagg          :       0.00       0.00      0          0          0          0          0          0          0          0          0          0
  dualinfer        :       0.00       0.00      0          0          0          0          0          0          0          0          0          0
  gateextraction   :       0.00       0.00      3          0          0          0          0          0        108         34          0          0
  implfree         :       0.00       0.00      0          0          0          0          0          0          0          0          0          0
  implics          :       0.00       0.00      4          0          0          0          0          0          0          0          0          0
  inttobinary      :       0.00       0.00      0          0          0          0          0          0          0          0          0          0
  redvub           :       0.00       0.00      0          0          0          0          0          0          0          0          0          0
  stuffing         :       0.00       0.00      1          0          0          0          0          0          0          0          0          0
  trivial          :       0.00       0.00      7          0          0          0          0          0          0          0          0          0
  tworowbnd        :       0.00       0.00      0          0          0          0          0          0          0          0          0          0
  dualfix          :       0.00       0.00      7          4          0          0          0          0          0          0          0          0
  genvbounds       :       0.00       0.00      0          0          0          0          0          0          0          0          0          0
  probing          :       0.03       0.00      1          0          0          0          4          0          0          0          0          0
  pseudoobj        :       0.00       0.00      2          0          0          0          0          0          0          0          0          0
  varbound         :       0.00       0.00      9          0          0          0          0          0         28         28          0          0
  setppc           :       0.00       0.00     12          0          0          0          0          0          0          0          0          0
  and              :       0.00       0.00      4          0         12          0          0          0         12          0          0          0
  linear           :       0.02       0.00      9          3          1          0          4          0          7          0         12         12
  logicor          :       0.00       0.00      7          0          0          0          0          0          0          0          0          0
  bounddisjunction :       0.00       0.00      0          0          0          0          0          0          0          0          0          0
  quadratic        :       0.00       0.00      2          0          0          0          0          0          0       1939          0          0
  root node        :          -          -      -         26          -          -        234          -          -          -          -          -
Constraints        :     Number  MaxNumber  #Separate #Propagate    #EnfoLP    #EnfoPS     #Check   #ResProp    Cutoffs    DomReds       Cuts    Applied      Conss   Children
  integral         :          0          0          0          0      11927          0       9826          0          0       5677          0          0         53      22578
  varbound         :        893        893       4667      89413          3          0       5811      28369         60     398697          0          0          0          0
  setppc           :        110        110       4667      89352          3          0         30      27536         59      26641          7          0          0          0
  and              :         22         22       3766      21663          0          0          5      10432          6       3200         38         25          0          0
  linear           :        979        979       4667      89287          3          0          0       4733        114     442538      74162      35562          0          0
  logicor          :         35+      1296       4667      29058          0          0          0       4375         51       3142         44         40          0          0
  bounddisjunction :          0+      1080          0      39421          0          0          0        936          4       5217          0          0          0          0
  countsols        :          0          0          0          0          1          0       3864          0          0          0          0          0          0          0
Constraint Timings :  TotalTime  SetupTime   Separate  Propagate     EnfoLP     EnfoPS      Check    ResProp    SB-Prop
  integral         :       4.70       0.00       0.00       0.00       4.70       0.00       0.00       0.00       0.00
  varbound         :       0.55       0.00       0.09       0.41       0.00       0.00       0.02       0.01       0.02
  setppc           :       0.34       0.00       0.00       0.29       0.00       0.00       0.00       0.00       0.05
  and              :       0.01       0.00       0.00       0.01       0.00       0.00       0.00       0.00       0.00
  linear           :       1.66       0.00       0.42       1.14       0.00       0.00       0.00       0.00       0.10
  logicor          :       0.15       0.00       0.01       0.14       0.00       0.00       0.00       0.00       0.00
  bounddisjunction :       0.37       0.00       0.00       0.35       0.00       0.00       0.00       0.00       0.02
  countsols        :       0.00       0.00       0.00       0.00       0.00       0.00       0.00       0.00       0.00
Propagators        : #Propagate   #ResProp    Cutoffs    DomReds
  dualfix          :          2          0          0          0
  genvbounds       :          0          0          0          0
  obbt             :          0          0          0          0
  probing          :          0          0          0          0
  pseudoobj        :      74636          0          0         64
  redcost          :      29532          0          0       1814
  rootredcost      :          2          0          0          0
  vbounds          :     100949         54          0        536
Propagator Timings :  TotalTime  SetupTime   Presolve  Propagate    ResProp    SB-Prop
  dualfix          :       0.00       0.00       0.00       0.00       0.00       0.00
  genvbounds       :       0.01       0.00       0.00       0.01       0.00       0.00
  obbt             :       0.00       0.00       0.00       0.00       0.00       0.00
  probing          :       0.03       0.00       0.03       0.00       0.00       0.00
  pseudoobj        :       0.01       0.00       0.00       0.01       0.00       0.00
  redcost          :       0.07       0.00       0.00       0.07       0.00       0.00
  rootredcost      :       0.03       0.00       0.00       0.03       0.00       0.00
  vbounds          :       0.06       0.00       0.00       0.06       0.00       0.00
Conflict Analysis  :       Time      Calls    Success    DomReds  Conflicts   Literals    Reconvs ReconvLits   LP Iters
  propagation      :       0.01        178        166          -       1417       35.9         15       31.4          -
  infeasible LP    :       0.20       2875       2701          -      18917       20.6         68        4.9          0
  bound exceed. LP :       0.00          0          0          -          0        0.0          0        0.0          0
  strong branching :       0.00          0          0          -          0        0.0          0        0.0          0
  pseudo solution  :       0.00          0          0          -          0        0.0          0        0.0          -
  applied globally :       0.04          -          -          0       6309       12.9          -          -          -
  applied locally  :          -          -          -          0         28       34.9          -          -          -
Separators         :   ExecTime  SetupTime      Calls    Cutoffs    DomReds       Cuts    Applied      Conss
  cut pool         :       0.01                  4662          -          -      32155          -          -    (maximal pool size: 863)
  cgmip            :       0.00       0.00          0          0          0          0          0          0
  clique           :       0.00       0.00         84          0          0         32         29          0
  closecuts        :       0.07       0.00          6          0          0        220          0          0
  cmir             :       0.05       0.00         15          0          0        378      18925          0
  disjunctive      :       0.00       0.00          0          0          0          0          0          0
  eccuts           :       0.00       0.00          0          0          0          0          0          0
  flowcover        :       0.26       0.00         22          0          0        305         32          0
  gomory           :       0.04       0.00         15          0          0        164        164          0
  impliedbounds    :       0.00       0.00         84          0          0        592       1006          0
  intobj           :       0.00       0.00          0          0          0          0          0          0
  mcf              :       0.00       0.00          1          0          0          0          0          0
  oddcycle         :       0.00       0.00          8          0          0         11         10          0
  rapidlearning    :       0.00       0.00          0          0          0          0          0          0
  strongcg         :       0.10       0.00         30          0          0         34         17          0
  zerohalf         :       0.10       0.00         15          0          0          1          1          0
Pricers            :   ExecTime  SetupTime      Calls       Vars
  problem variables:       0.00          -          0          0
Branching Rules    :   ExecTime  SetupTime   BranchLP  BranchExt   BranchPS    Cutoffs    DomReds       Cuts      Conss   Children
  allfullstrong    :       0.00       0.00          0          0          0          0          0          0          0          0
  cloud            :       0.00       0.00          0          0          0          0          0          0          0          0
  distribution     :       0.00       0.00          0          0          0          0          0          0          0          0
  fullstrong       :       0.00       0.00          0          0          0          0          0          0          0          0
  inference        :       0.00       0.00          0          0          0          0          0          0          0          0
  leastinf         :       0.00       0.00          0          0          0          0          0          0          0          0
  mostinf          :       0.00       0.00          0          0          0          0          0          0          0          0
  multaggr         :       0.00       0.00          0          0          0          0          0          0          0          0
  nodereopt        :       0.00       0.00          0          0          0          0          0          0          0          0
  pscost           :       0.00       0.00          0          0          0          0          0          0          0          0
  random           :       0.00       0.00          0          0          0          0          0          0          0          0
  relpscost        :       4.70       0.00      11924          0          0          0       5677          0        -59      22578
Primal Heuristics  :   ExecTime  SetupTime      Calls      Found       Best
  LP solutions     :       0.00          -          -          1          -
  pseudo solutions :       0.00          -          -          0          -
  strong branching :       0.00          -          -          0          -
  SpaGreedy        :       4.79       0.00       3862          2          1
  actconsdiving    :       0.14       0.00         18          0          0
  bound            :       0.00       0.00        165          0          0
  clique           :       0.03       0.00          7          0          0
  coefdiving       :       0.55       0.00        104          0          0
  crossover        :       0.12       0.00          2          0          0
  dins             :       0.58       0.00         59          0          0
  distributiondivin:       0.90       0.00        103          0          0
  dualval          :       0.00       0.00          0          0          0
  feaspump         :       1.12       0.00         42          0          0
  fixandinfer      :       0.00       0.00          0          0          0
  fracdiving       :       0.90       0.00        103          0          0
  guideddiving     :       2.08       0.00        103          0          0
  indicator        :       0.00       0.00          0          0          0
  intdiving        :       0.27       0.00         26          0          0
  intshifting      :       0.07       0.00         33          0          0
  linesearchdiving :       1.03       0.00        104          0          0
  localbranching   :       0.72       0.00          2          0          0
  mutation         :       0.33       0.00         17          0          0
  nlpdiving        :       0.00       0.00          0          0          0
  objpscostdiving  :       1.23       0.00         35          0          0
  octane           :       0.00       0.00          0          0          0
  ofins            :       0.00       0.00          0          0          0
  oneopt           :       0.01       0.00          1          0          0
  proximity        :       0.05       0.00          1          0          0
  pscostdiving     :       0.96       0.00        103          0          0
  randrounding     :       0.22       0.00       5523          0          0
  rens             :       1.33       0.00          3          0          0
  reoptsols        :       0.00       0.00          0          0          0
  rins             :       0.67       0.00          6          0          0
  rootsoldiving    :       0.87       0.00         50          0          0
  rounding         :       0.05       0.00       1752          0          0
  shiftandpropagate:       0.00       0.00          0          0          0
  shifting         :       0.50       0.00       1056          0          0
  simplerounding   :       0.00       0.00          0          0          0
  subnlp           :       0.00       0.00          0          0          0
  trivial          :       0.02       0.00        166          0          0
  trivialnegation  :       0.00       0.00          0          0          0
  trysol           :       0.01       0.00          0          0          0
  twoopt           :       0.00       0.00          0          0          0
  undercover       :       0.00       0.00          5          0          0
  vbounds          :       0.04       0.00        165          0          0
  veclendiving     :       0.55       0.00        104          0          0
  zeroobj          :       0.03       0.00          1          1          1
  zirounding       :       0.01       0.00       1000          0          0
  other solutions  :          -          -          -          0          -
Diving Statistics  :      Calls      Nodes   LP Iters Backtracks   MinDepth   MaxDepth   AvgDepth  NLeafSols  MinSolDpt  MaxSolDpt  AvgSolDpt
  actconsdiving    :         18        195       3665         31         16         28       19.2          -          -          -          -
  coefdiving       :        104       1121      14813        135         14         39       21.2          -          -          -          -
  distributiondivin:        103        693      15655        123         13         30       17.4          -          -          -          -
  fracdiving       :        103        884      23981        144         13         39       18.7          -          -          -          -
  guideddiving     :        103       1221      52028        141         14         35       23.1          -          -          -          -
  linesearchdiving :        104        736      25567        141         12         23       17.6          -          -          -          -
  pscostdiving     :        103       1125      26694         99         15         38       21.5          -          -          -          -
  veclendiving     :        104        921      14273        177         14         25       19.0          -          -          -          -
LP                 :       Time      Calls Iterations  Iter/call   Iter/sec  Time-0-It Calls-0-It
  primal LP        :       0.13        820         91       1.75     700.00       0.12        768
  dual LP          :      72.04      33614    1983918      62.45   27539.12       0.20       1848
  lex dual LP      :       0.00          0          0       0.00          -
  barrier LP       :       0.00          0          0       0.00          -       0.00          0
  diving/probing LP:       9.30       5208     276525      53.10   29733.87
  strong branching :       3.85       1309     109665      83.78   28484.42
    (at root node) :          -         19       1838      96.74          -
  conflict analysis:       0.00          0          0       0.00          -
B&B Tree           :
  number of runs   :          1
  nodes            :      22539 (11289 internal, 11250 leaves)
  nodes (total)    :      22539 (11289 internal, 11250 leaves)
  nodes left       :          0
  max depth        :         30
  max depth (total):         30
  backtracks       :       7097 (31.5%)
  delayed cutoffs  :         37
  repropagations   :       1886 (26314 domain reductions, 12 cutoffs)
  avg switch length:       5.85
  switching time   :       3.43
Root Node          :
  First LP value   : +3.00000000000000e+00
  First LP Iters   :        406
  First LP Time    :       0.00
  Final Dual Bound : +3.74650076837274e-03
  Final Root Iters :       3323
Solution           :
  Solutions found  :          4 (3 improvements)
  First Solution   : +0.00000000000000e+00   (in run 1, after 0 nodes, 0.02 seconds, depth 0, found by <zeroobj>)
  Gap First Sol.   :   infinite
  Gap Last Sol.    :      47.49 %
  Primal Bound     : +2.88402608000001e-04   (in run 1, after 9616 nodes, 20.85 seconds, depth 26, found by <relaxation>)
  Dual Bound       : +2.88402608000001e-04
  Gap              :       0.00 %
  Avg. Gap         :      34.95 % (3749.32 primal-dual integral)
